* #variable= 8 #constraint= 12
* x1 = r0
* x2 = r1
* x3 = x0
* x4 = x1
* x5 = y0
* x6 = y1
* x7 = z0
* x8 = z1
+2 x1 +1 x2 -2 x7 -1 x8 >= 0;
-2 x1 -1 x2 +2 x7 +1 x8 >= 0;
+1 x3 -1 x1 >= 0;
+1 x4 -1 x2 >= 0;
+1 x5 -1 x1 >= 0;
+1 x6 -1 x2 >= 0;
+1 x1 -1 x3 -1 x5 >= -1;
+1 x2 -1 x4 -1 x6 >= -1;
-1 x3 >= 0;
+1 x4 >= 1
+1 x7 >= 1;
-1 x8 >= 0;
